c Sudoku solution
p cnf 729 0
124 0
162 0
173 0
218 0
251 0
339 0
346 0
365 0
382 0
527 0
534 0
563 0
586 0
619 0
631 0
644 0
652 0
667 0
626 0
771 0
829 0
872 0
883 0
693 0
935 0
942 0
953 0
243 0
987 0
994 0
688 0
675 0
579 0
969 0
264 0
374 0
477 0
484 0
276 0
978 0
916 0
921 0
136 0
323 0
181 0
311 0
558 0
357 0
159 0
148 0
398 0
449 0
492 0
591 0
461 0
545 0
456 0
512 0
841 0
747 0
195 0
289 0
297 0
117 0
225 0
232 0
415 0
433 0
428 0
713 0
814 0
837 0
754 0
855 0
896 0
766 0
868 0
722 0
738 0
785 0
799 0
